c CNFmiter, Norbert Manthey, 2020
c 1.cnf and 2.cnf
c 
p cnf 11 28
1 2 -4  0
4 -1  0
4 -2  0
-1 -2 -5  0
5 1  0
5 2  0
-4 -5 6  0
-6 4  0
-6 5  0
1 2 -7  0
7 -1  0
7 -2  0
-1 -2 -8  0
8 1  0
8 2  0
2 -3 -9  0
9 -2  0
9 3  0
-2 3 -10  0
10 2  0
10 -3  0
-7 -8 -9 -10 11  0
-11 7  0
-11 8  0
-11 9  0
-11 10  0
6 11  0
-6 -11  0
